c read Graph
c width = 95
c time = 605 ms
c width = 7
c time = 852 ms
c width = 6
c time = 2411 ms
c width = 6
c time = 3970 ms
s td 102 7 108
b 1 1 2 19
b 2 2 3 19 20
b 3 16 17 35 36
b 4 3 19 20 37
b 5 16 35 36 54
b 6 55 73 74 92
b 7 72 89 90 107
b 8 55 74 92 93
b 9 72 89 106 107
b 10 3 4 21 38 55
b 11 4 5 21 22 38 55
b 12 5 6 21 22 23 38 55
b 13 6 21 22 23 38 39 55
b 14 6 22 23 38 39 40 55
b 15 6 23 38 39 40 55 56
b 16 6 23 39 40 55 56 57
b 17 6 23 40 55 56 57 74
b 18 6 23 40 55 57 74 93
b 19 6 23 40 57 74 75 93
b 20 6 23 40 57 58 75 93
b 21 6 23 40 41 58 75 93
b 22 6 23 24 41 58 75 93
b 23 6 7 24 41 58 75 93
b 24 7 24 41 58 75 76 93
b 25 7 24 41 58 59 76 93
b 26 7 24 41 42 59 76 93
b 27 7 24 25 42 59 76 93
b 28 7 8 25 42 59 76 93
b 29 8 25 42 59 76 93 94
b 30 8 25 42 59 76 77 94
b 31 8 25 42 59 60 77 94
b 32 8 25 42 43 60 77 94
b 33 8 25 26 43 60 77 94
b 34 8 9 26 43 60 77 94
b 35 9 26 43 60 77 94 95
b 36 9 26 43 60 77 78 95
b 37 9 26 43 60 61 78 95
b 38 9 26 43 44 61 78 95
b 39 9 26 27 44 61 78 95
b 40 9 27 44 61 78 95 96
b 41 9 27 44 61 78 79 96
b 42 9 27 44 61 62 79 96
b 43 9 27 44 45 62 79 96
b 44 9 27 28 45 62 79 96
b 45 9 11 28 45 62 79 96
b 46 11 28 45 62 79 96 97
b 47 11 28 45 62 79 80 97
b 48 11 28 45 62 80 97 98
b 49 11 28 45 62 80 81 98
b 50 11 28 45 62 64 81 98
b 51 11 28 45 47 64 81 98
b 52 11 28 30 47 64 81 98
b 53 11 13 30 47 64 81 98
b 54 13 30 47 64 81 98 100
b 55 13 30 47 64 81 83 100
b 56 13 30 47 64 66 83 100
b 57 13 30 47 49 66 83 100
b 58 13 30 32 49 66 83 100
b 59 13 15 32 49 66 83 100
b 60 15 32 49 66 83 100 102
b 61 15 32 49 66 83 85 102
b 62 15 32 49 66 68 85 102
b 63 15 32 49 51 68 85 102
b 64 15 32 34 51 68 85 102
b 65 15 34 51 68 85 102 104
b 66 15 34 51 68 85 87 104
b 67 15 34 51 68 70 87 104
b 68 15 34 51 53 70 87 104
b 69 15 34 53 70 72 87 104
b 70 3 21 37 38 55
b 71 3 20 21 37 38
b 72 64 81 82 83 100
b 73 81 98 99 100
b 74 11 12 13 30
b 75 9 10 11 28
b 76 11 28 29 30 47
b 77 28 45 46 47 64
b 78 45 62 63 64 81
b 79 47 64 65 66 83
b 80 83 100 101 102
b 81 85 102 103 104
b 82 30 47 48 49 66
b 83 49 66 67 68 85
b 84 51 68 69 70 87
b 85 53 70 72 87 104 106
b 86 53 70 72 87 88 106
b 87 53 70 71 72 88 106
b 88 71 72 88 89 106
b 89 87 104 105 106
b 90 34 51 52 53 70
b 91 15 34 53 54 72
b 92 15 16 34 53 54
b 93 16 34 35 53 54
b 94 15 32 33 34 51
b 95 13 14 15 32
b 96 32 49 50 51 68
b 97 68 85 86 87 104
b 98 13 30 31 32 49
b 99 66 83 84 85 102
b 100 90 107 108
b 101 73 91 92
b 102 17 18 36
1 2
2 4
3 102
3 5
4 71
5 93
6 101
6 8
7 100
7 9
8 18
9 88
10 70
10 11
11 12
12 13
13 14
14 15
15 16
16 17
17 18
18 19
19 20
20 21
21 22
22 23
23 24
24 25
25 26
26 27
27 28
28 29
29 30
30 31
31 32
32 33
33 34
34 35
35 36
36 37
37 38
38 39
39 40
40 41
41 42
42 43
43 44
44 45
45 75
45 46
46 47
47 48
48 49
49 50
50 78
50 51
51 77
51 52
52 76
52 53
53 74
53 54
54 73
54 55
55 72
55 56
56 79
56 57
57 82
57 58
58 98
58 59
59 95
59 60
60 80
60 61
61 99
61 62
62 83
62 63
63 96
63 64
64 94
64 65
65 81
65 66
66 97
66 67
67 84
67 68
68 90
68 69
69 91
69 85
70 71
85 89
85 86
86 87
87 88
91 92
92 93
